c
p cnf 31 45
28 26 0
-14 -1 0
-7 13 0
13 -16 0
8 20 0
-1 2 0
15 -1 0
-27 16 0
-6 -29 0
6 31 0
-16 26 0
9 -8 0
-17 -23 0
24 -19 0
-8 3 0
-28 23 0
-15 16 0
-13 5 0
-18 -20 0
-9 -4 0
25 2 0
2 -19 0
15 29 0
16 12 0
5 17 0
25 -2 0
28 27 0
-15 -9 0
-6 -14 0
-29 -3 0
-24 -15 0
-27 25 0
10 25 0
-21 5 0
-17 -19 0
12 -6 0
-24 -22 0
28 -10 0
-21 -12 0
-7 6 0
-11 -25 0
-12 -8 0
15 -10 0
-16 25 0
24 -23 0
